Reading model...
...model read.
creating competitive generators file...
...competitive generators recorded.
Loading data...
.. day-ahead data with real-time VRE data read.
Compiling instance...
...instance created.
Creating Offer Mitigation (model will solve as dispatch if TRUE)...
NOTE: storage offers will not be mitigated
...storage offer mitigation file created
LPStorage
running bound DA offers as LP
Solving...

Welcome to IBM(R) ILOG(R) CPLEX(R) Interactive Optimizer 12.9.0.0
  with Simplex, Mixed Integer & Barrier Optimizers
5725-A06 5725-A29 5724-Y48 5724-Y49 5724-Y54 5724-Y55 5655-Y21
Copyright IBM Corp. 1988, 2019.  All Rights Reserved.

Type 'help' for a list of available commands.
Type 'help' followed by a command name for more
information on commands.

CPLEX> Logfile 'cplex.log' closed.
Logfile 'C:\Users\Luke\Desktop\competitiveMPEC_1.16\logs\tmpugvb8aaa.cplex.log' open.
CPLEX> New value for parallel optimization mode: -1
CPLEX> New value for mixed integer optimality gap tolerance: 0.01
CPLEX> New value for feasibility tolerance: 0.0001
CPLEX> New value for deterministic time limit in ticks: 250000
CPLEX> Problem 'C:\Users\Luke\Desktop\competitiveMPEC_1.16\logs\tmp7autc8s1.pyomo.lp' read.
Read time = 0.05 sec. (2.99 ticks)
CPLEX> Problem name         : C:\Users\Luke\Desktop\competitiveMPEC_1.16\logs\tmp7autc8s1.pyomo.lp
Objective sense      : Minimize
Variables            :   25839  [Nneg: 889,  Box: 21470,  Free: 3480]
Objective nonzeros   :    2524
Linear constraints   :   27297  [Less: 13813,  Greater: 4416,  Equal: 9068]
  Nonzeros           :   87372
  RHS nonzeros       :   12135

Variables            : Min LB: -5000.000        Max UB: 5000.000       
Objective nonzeros   : Min   : 1.000000         Max   : 124.0997       
Linear constraints   :
  Nonzeros           : Min   : 0.8500000        Max   : 3000.000       
  RHS nonzeros       : Min   : 0.07500000       Max   : 90000.00       
CPLEX> CPXPARAM_Parallel                                -1
CPXPARAM_Simplex_Tolerances_Feasibility          0.0001
CPXPARAM_DetTimeLimit                            250000
CPXPARAM_MIP_Tolerances_MIPGap                   0.01
Parallel mode: opportunistic, using up to 24 threads for concurrent optimization.
Tried aggregator 1 time.
LP Presolve eliminated 22001 rows and 17622 columns.
Aggregator did 749 substitutions.
Reduced LP has 4547 rows, 7468 columns, and 19831 nonzeros.
Presolve time = 0.05 sec. (27.49 ticks)

Iteration log . . .
Iteration:     1   Dual objective     =         -5719.000000
Perturbation started.
Iteration:   101   Dual objective     =         -5719.000000
Iteration:   401   Dual objective     =         -5718.564097
Iteration:   736   Dual objective     =         -5718.206282
Iteration:  1068   Dual objective     =         -5717.874897
Iteration:  1402   Dual objective     =         -5717.603017
Iteration:  1743   Dual objective     =         -1057.164502
Iteration:  2061   Dual objective     =         -1056.983582
Iteration:  2348   Dual objective     =         -1056.931701
Iteration:  2596   Dual objective     =         -1056.902679
Iteration:  2824   Dual objective     =        159575.923643
Iteration:  3061   Dual objective     =        301021.685341
Iteration:  3320   Dual objective     =        313021.701455
Iteration:  3601   Dual objective     =        314250.569092
Iteration:  3952   Dual objective     =        314641.299757
Removing perturbation.
Using devex.

Primal simplex solved model.


Primal simplex - Optimal:  Objective =  3.1467727122e+05
Solution time =    0.13 sec.  Iterations = 2699 (2162)
Deterministic time = 76.84 ticks  (614.71 ticks/sec)

CPLEX> Solution written to file 'C:\Users\Luke\Desktop\competitiveMPEC_1.16\logs\tmpvjyvkpbd.cplex.sol'.
CPLEX> Exporting results... 
